# Solution for model mitosis_srl_ilp
# Objective value = 8.8106872994318266e+00
Z_94_1_0 0
Z_94_1_1 0
Z_94_1_2 1
Z_94_1_3 0
Z_94_0_0 0
Z_94_0_1 0
Z_94_0_2 0
Z_94_0_3 1
Z_330_0_0 0
Z_330_0_1 0
Z_330_0_2 0
Z_330_0_3 1
Z_59_0_0 0
Z_59_0_1 0
Z_59_0_2 0
Z_59_0_3 1
Z_266_0_0 0
Z_266_0_1 0
Z_266_0_2 0
Z_266_0_3 1
Z_541_0_0 0
Z_541_0_1 0
Z_541_0_2 0
Z_541_0_3 1
Z_164_0_0 0
Z_164_0_1 0
Z_164_0_2 0
Z_164_0_3 1
Z_232_0_0 0
Z_232_0_1 0
Z_232_0_2 0
Z_232_0_3 1
Z_290_0_0 0
Z_290_0_1 0
Z_290_0_2 0
Z_290_0_3 1
Z_604_0_0 0
Z_604_0_1 0
Z_604_0_2 1
Z_604_0_3 0
Z_9_0_0 0
Z_9_0_1 0
Z_9_0_2 0
Z_9_0_3 1
Z_150_0_0 0
Z_150_0_1 0
Z_150_0_2 0
Z_150_0_3 1
